Version identifier: 22.1.0.0 | 2022-03-09 | 1a383f8ce
CPXPARAM_Read_DataCheck                          1
1 of 1 MIP starts provided solutions.
MIP start 'm1' defined initial solution with objective 53.0000.
Tried aggregator 3 times.
MIP Presolve eliminated 59606 rows and 5863 columns.
MIP Presolve modified 801 coefficients.
Aggregator did 54682 substitutions.
Reduced MIP has 6784 rows, 56479 columns, and 119839 nonzeros.
Reduced MIP has 56447 binaries, 32 generals, 0 SOSs, and 0 indicators.
Presolve time = 0.61 sec. (622.46 ticks)
Tried aggregator 1 time.
Detecting symmetries...
Reduced MIP has 6784 rows, 56479 columns, and 119839 nonzeros.
Reduced MIP has 56447 binaries, 32 generals, 0 SOSs, and 0 indicators.
Presolve time = 0.11 sec. (86.45 ticks)
Probing fixed 48 vars, tightened 0 bounds.
Probing changed sense of 13 constraints.
Probing time = 0.12 sec. (13.97 ticks)
Clique table members: 114666.
MIP emphasis: balance optimality and feasibility.
MIP search method: dynamic search.
Parallel mode: deterministic, using up to 8 threads.
Root relaxation solution time = 0.55 sec. (441.25 ticks)

        Nodes                                         Cuts/
   Node  Left     Objective  IInf  Best Integer    Best Bound    ItCnt     Gap

*     0+    0                           53.0000        0.0000           100.00%
      0     0       32.4165  5179       53.0000       32.4165       22   38.84%
      0     0        cutoff             53.0000                     43    0.00%
Elapsed time = 3.75 sec. (2804.25 ticks, tree = 0.01 MB, solutions = 1)

Zero-half cuts applied:  22
Gomory fractional cuts applied:  21

Root node processing (before b&c):
  Real time             =    3.75 sec. (2808.22 ticks)
Parallel b&c, 8 threads:
  Real time             =    0.00 sec. (0.00 ticks)
  Sync time (average)   =    0.00 sec.
  Wait time (average)   =    0.00 sec.
                          ------------
Total (root+branch&cut) =    3.75 sec. (2808.22 ticks)
